MARKOV
499
2 2 2 2 2 2 2 2 2 2 2 2 2 2 2 2 2 2 2 2 2 2 2 2 2 2 2 2 2 2 2 2 2 2 2 2 2 2 2 2 2 2 2 2 2 2 2 2 2 2 2 2 2 2 2 2 2 2 2 2 2 2 2 2 2 2 2 2 2 2 2 2 2 2 2 2 2 2 2 2 2 2 2 2 2 2 2 2 2 2 2 2 2 2 2 2 2 2 2 2 2 2 2 2 2 2 2 2 2 2 2 2 2 2 2 2 2 2 2 2 2 2 2 2 2 2 2 2 2 2 2 2 2 2 2 2 2 2 2 2 2 2 2 2 2 2 2 2 2 2 2 2 2 2 2 2 2 2 2 2 2 2 2 2 2 2 2 2 2 2 2 2 2 2 2 2 2 2 2 2 2 2 2 2 2 2 2 2 2 2 2 2 2 2 2 2 2 2 2 2 2 2 2 2 2 2 2 2 2 2 2 2 2 2 2 2 2 2 2 2 2 2 2 2 2 2 2 2 2 2 2 2 2 2 2 2 2 2 2 2 2 2 2 2 2 2 2 2 2 2 2 2 2 2 2 2 2 2 2 2 2 2 2 2 2 2 2 2 2 2 2 2 2 2 2 2 2 2 2 2 2 2 2 2 2 2 2 2 2 2 2 2 2 2 2 2 2 2 2 2 2 2 2 2 2 2 2 2 2 2 2 2 2 2 2 2 2 2 2 2 2 2 2 2 2 2 2 2 2 2 2 2 2 2 2 2 2 2 2 2 2 2 2 2 2 2 2 2 2 2 2 2 2 2 2 2 2 2 2 2 2 2 2 2 2 2 2 2 2 2 2 2 2 2 2 2 2 2 2 2 2 2 2 2 2 2 2 2 2 2 2 2 2 2 2 2 2 2 2 2 2 2 2 2 2 2 2 2 2 2 2 2 2 2 2 2 2 2 2 2 2 2 2 2 2 2 2 2 2 2 2 2 2 2 2 2 2 2 2 2 2 2 2 2 2 2 2 2 2 2 2 2 2 2 2 2 2 2 2 2 2 2 2 2 2 2 2 2 2 2 2 2 2 2 2 2 2 2 2 2 2 2 2 2 2 2 2 2 2 2 2 2 2 2 2 2 2 2 2 
499
2	483	0
3	268	138	1
2	89	2
3	119	7	3
1	4
2	475	5
2	85	6
2	32	7
3	430	358	8
2	171	9
3	108	427	10
2	88	11
2	96	12
2	123	13
2	123	14
2	303	15
1	16
2	451	17
2	294	18
2	473	19
2	95	20
3	45	188	21
2	477	22
2	123	23
3	411	78	24
5	245	376	242	210	25
2	252	26
3	59	62	27
1	28
3	347	150	29
3	308	282	30
2	171	31
3	482	280	32
6	356	420	90	12	146	33
2	253	34
2	294	35
2	493	36
3	49	375	37
3	353	391	38
2	350	39
3	406	395	40
5	331	174	175	141	41
2	343	42
2	130	43
2	470	44
2	157	45
2	60	46
2	37	47
2	95	48
3	193	422	49
2	294	50
2	333	51
2	128	52
3	42	122	53
2	226	54
2	465	55
1	56
2	25	57
2	321	58
2	437	59
3	298	339	60
3	81	72	61
3	199	484	62
2	33	63
1	64
3	198	156	65
3	399	91	66
2	477	67
2	88	68
2	28	69
6	275	104	145	288	131	70
3	453	98	71
3	31	99	72
2	473	73
2	189	74
2	257	75
2	134	76
2	350	77
3	260	467	78
2	20	79
2	106	80
3	243	75	81
3	228	162	82
2	25	83
3	111	372	84
2	333	85
2	56	86
3	471	19	87
3	405	267	88
1	89
2	60	90
3	215	47	91
2	123	92
2	23	93
3	224	121	94
3	359	66	95
2	477	96
2	415	97
3	231	235	98
2	475	99
3	270	208	100
3	69	304	101
2	379	102
2	128	103
2	407	104
2	333	105
1	106
2	469	107
2	434	108
2	343	109
1	110
2	257	111
3	35	324	112
2	178	113
2	110	114
2	134	115
1	116
2	4	117
2	486	118
2	364	119
3	230	203	120
2	33	121
2	350	122
3	342	185	123
2	367	124
3	311	229	125
3	155	443	126
2	171	127
1	128
2	167	129
1	130
2	327	131
2	30	132
2	483	133
6	200	449	6	380	481	134
3	460	381	135
2	192	136
2	33	137
2	415	138
1	139
3	360	76	140
2	458	141
3	262	334	142
3	114	247	143
3	127	214	144
2	464	145
2	25	146
3	254	186	147
3	116	425	148
3	2	370	149
2	252	150
1	151
3	403	168	152
2	92	153
3	393	248	154
2	165	155
2	130	156
1	157
2	154	158
2	327	159
1	160
3	97	196	161
3	22	233	162
1	163
2	60	164
3	409	452	165
2	48	166
1	167
2	451	168
2	154	169
2	16	170
1	171
2	60	172
2	404	173
2	30	174
2	172	175
2	385	176
2	327	177
6	250	276	371	234	159	178
3	397	352	179
2	219	180
3	386	439	181
2	88	182
2	343	183
2	123	184
3	289	416	185
2	350	186
2	32	187
3	307	410	188
1	189
1	190
2	178	191
3	181	290	192
2	16	193
2	398	194
2	379	195
3	225	133	196
2	60	197
2	151	198
2	95	199
2	295	200
3	332	94	201
2	398	202
3	67	191	203
3	206	102	204
2	89	205
2	30	206
3	277	498	207
2	134	208
2	219	209
5	374	335	369	337	210
2	30	211
3	305	3	212
2	287	213
3	51	39	214
2	408	215
2	473	216
2	477	217
3	183	348	218
1	219
3	136	169	220
2	483	221
2	223	222
2	123	223
2	343	224
2	123	225
2	477	226
3	255	476	227
2	365	228
3	329	330	229
2	56	230
2	60	231
3	261	414	232
2	379	233
2	13	234
2	70	235
5	79	55	349	314	236
2	217	237
2	310	238
2	343	239
3	497	140	240
3	264	459	241
5	446	424	325	153	242
2	287	243
3	86	432	244
5	394	238	281	184	245
2	33	246
2	495	247
3	5	363	248
2	415	249
2	88	250
2	470	251
1	252
2	30	253
2	123	254
2	333	255
1	256
1	257
2	256	258
2	473	259
2	30	260
2	256	261
2	287	262
3	392	218	263
2	434	264
3	438	317	265
5	166	173	46	237	266
3	448	152	267
2	463	268
3	271	77	269
2	477	270
2	88	271
2	60	272
2	488	273
2	365	274
2	88	275
2	109	276
2	95	277
2	283	278
2	157	279
3	80	209	280
2	368	281
3	148	220	282
2	60	283
2	475	284
3	468	340	285
3	14	44	286
1	287
2	123	288
3	479	73	289
3	9	205	290
2	70	291
2	60	292
3	107	480	293
1	294
2	88	295
5	440	34	278	54	296
3	18	170	297
3	361	241	298
3	428	158	299
3	105	246	300
2	189	301
2	189	302
1	303
2	469	304
3	190	259	305
2	123	306
2	30	307
3	400	309	308
3	302	103	309
2	343	310
2	252	311
2	4	312
2	88	313
2	477	314
3	26	279	315
2	95	316
2	192	317
2	4	318
2	483	319
3	445	117	320
2	88	321
3	419	454	322
3	213	300	323
2	110	324
2	354	325
2	477	326
5	236	266	41	296	327
3	139	216	328
2	95	329
2	70	330
2	373	331
2	110	332
3	61	387	333
2	463	334
2	344	335
2	60	336
2	491	337
2	333	338
3	328	265	339
3	412	195	340
2	25	341
3	1	149	342
3	431	212	343
2	343	344
2	64	345
3	244	485	346
2	256	347
2	470	348
2	197	349
6	388	132	272	441	57	350
3	318	207	351
3	378	319	352
2	106	353
2	333	354
3	490	417	355
2	95	356
2	88	357
3	239	0	358
3	29	320	359
2	30	360
3	124	447	361
3	15	286	362
2	303	363
3	426	10	364
1	365
2	367	366
1	367
2	333	368
2	338	369
2	303	370
2	333	371
3	492	221	372
2	95	373
2	88	374
3	461	249	375
5	377	176	455	222	376
2	357	377
2	88	378
6	58	413	456	93	177	379
2	123	380
3	313	251	381
2	95	382
2	95	383
3	182	63	384
2	343	385
2	151	386
3	322	126	387
2	383	388
3	496	147	389
2	477	390
3	292	115	391
2	398	392
3	43	202	393
2	68	394
3	306	137	395
2	178	396
2	16	397
1	398
3	163	478	399
3	345	401	400
2	157	401
3	284	227	402
2	165	403
2	30	404
3	297	65	405
2	463	406
2	343	407
3	112	142	408
3	258	423	409
2	70	410
2	64	411
2	60	412
2	343	413
3	316	396	414
1	415
3	17	187	416
3	336	113	417
3	180	100	418
1	419
2	450	420
2	477	421
2	495	422
2	64	423
2	343	424
2	473	425
3	466	74	426
2	365	427
2	37	428
3	129	194	429
2	495	430
3	143	429	431
2	469	432
2	477	433
1	434
3	494	269	435
2	164	436
1	437
2	408	438
2	167	439
2	95	440
2	390	441
3	301	204	442
2	364	443
2	56	444
2	437	445
2	11	446
2	28	447
3	160	457	448
2	343	449
2	30	450
3	315	101	451
3	366	444	452
2	28	453
2	473	454
2	333	455
2	333	456
2	473	457
2	477	458
2	106	459
2	130	460
2	257	461
3	487	53	462
1	463
2	333	464
2	30	465
2	437	466
2	178	467
2	434	468
1	469
6	36	211	273	326	83	470
1	471
2	219	472
1	473
3	87	299	474
1	475
2	470	476
3	346	474	477
2	473	478
1	479
3	421	291	480
2	327	481
3	312	52	482
6	382	118	436	433	341	483
2	379	484
3	274	472	485
2	30	486
2	167	487
2	60	488
3	50	384	489
2	367	490
2	123	491
2	333	492
2	95	493
2	151	494
1	495
2	89	496
2	128	497
2	134	498

4
 1.000000 0.000000
 0.000000 1.000000

8
 1.000000 0.000000
 0.000000 1.000000
 0.000000 1.000000
 1.000000 0.000000

4
 1.000000 0.000000
 0.000000 1.000000

8
 1.000000 0.000000
 0.000000 1.000000
 0.000000 1.000000
 1.000000 0.000000

2
 0.500000 0.500000

4
 1.000000 0.000000
 0.000000 1.000000

4
 0.000000 1.000000
 1.000000 0.000000

4
 1.000000 0.000000
 0.000000 1.000000

8
 1.000000 0.000000
 0.000000 1.000000
 0.000000 1.000000
 1.000000 0.000000

4
 1.000000 0.000000
 0.000000 1.000000

8
 1.000000 0.000000
 0.000000 1.000000
 0.000000 1.000000
 1.000000 0.000000

4
 1.000000 0.000000
 0.000000 1.000000

4
 0.000000 1.000000
 1.000000 0.000000

4
 1.000000 0.000000
 0.000000 1.000000

4
 1.000000 0.000000
 0.000000 1.000000

4
 1.000000 0.000000
 0.000000 1.000000

2
 0.500000 0.500000

4
 1.000000 0.000000
 0.000000 1.000000

4
 1.000000 0.000000
 0.000000 1.000000

4
 1.000000 0.000000
 0.000000 1.000000

4
 1.000000 0.000000
 0.000000 1.000000

8
 1.000000 0.000000
 0.000000 1.000000
 0.000000 1.000000
 1.000000 0.000000

4
 1.000000 0.000000
 0.000000 1.000000

4
 1.000000 0.000000
 0.000000 1.000000

8
 1.000000 0.000000
 0.000000 1.000000
 0.000000 1.000000
 1.000000 0.000000

32
 1.000000 0.000000
 0.000000 1.000000
 0.000000 1.000000
 0.000000 1.000000
 0.000000 1.000000
 0.000000 1.000000
 0.000000 1.000000
 0.000000 1.000000
 0.000000 1.000000
 0.000000 1.000000
 0.000000 1.000000
 0.000000 1.000000
 0.000000 1.000000
 0.000000 1.000000
 0.000000 1.000000
 0.000000 1.000000

4
 1.000000 0.000000
 0.000000 1.000000

8
 1.000000 0.000000
 0.000000 1.000000
 0.000000 1.000000
 1.000000 0.000000

2
 0.500000 0.500000

8
 1.000000 0.000000
 0.000000 1.000000
 0.000000 1.000000
 1.000000 0.000000

8
 1.000000 0.000000
 0.000000 1.000000
 0.000000 1.000000
 1.000000 0.000000

4
 1.000000 0.000000
 0.000000 1.000000

8
 1.000000 0.000000
 0.000000 1.000000
 0.000000 1.000000
 1.000000 0.000000

64
 1.000000 0.000000
 1.000000 0.000000
 1.000000 0.000000
 1.000000 0.000000
 1.000000 0.000000
 1.000000 0.000000
 1.000000 0.000000
 1.000000 0.000000
 1.000000 0.000000
 1.000000 0.000000
 1.000000 0.000000
 1.000000 0.000000
 1.000000 0.000000
 1.000000 0.000000
 1.000000 0.000000
 1.000000 0.000000
 1.000000 0.000000
 1.000000 0.000000
 1.000000 0.000000
 1.000000 0.000000
 1.000000 0.000000
 1.000000 0.000000
 1.000000 0.000000
 1.000000 0.000000
 1.000000 0.000000
 1.000000 0.000000
 1.000000 0.000000
 1.000000 0.000000
 1.000000 0.000000
 1.000000 0.000000
 1.000000 0.000000
 0.000000 1.000000

4
 0.000000 1.000000
 1.000000 0.000000

4
 1.000000 0.000000
 0.000000 1.000000

4
 0.000000 1.000000
 1.000000 0.000000

8
 1.000000 0.000000
 0.000000 1.000000
 0.000000 1.000000
 1.000000 0.000000

8
 1.000000 0.000000
 0.000000 1.000000
 0.000000 1.000000
 1.000000 0.000000

4
 1.000000 0.000000
 0.000000 1.000000

8
 1.000000 0.000000
 0.000000 1.000000
 0.000000 1.000000
 1.000000 0.000000

32
 1.000000 0.000000
 1.000000 0.000000
 1.000000 0.000000
 1.000000 0.000000
 1.000000 0.000000
 1.000000 0.000000
 1.000000 0.000000
 1.000000 0.000000
 1.000000 0.000000
 1.000000 0.000000
 1.000000 0.000000
 1.000000 0.000000
 1.000000 0.000000
 1.000000 0.000000
 1.000000 0.000000
 0.000000 1.000000

4
 1.000000 0.000000
 0.000000 1.000000

4
 1.000000 0.000000
 0.000000 1.000000

4
 1.000000 0.000000
 0.000000 1.000000

4
 1.000000 0.000000
 0.000000 1.000000

4
 1.000000 0.000000
 0.000000 1.000000

4
 1.000000 0.000000
 0.000000 1.000000

4
 1.000000 0.000000
 0.000000 1.000000

8
 1.000000 0.000000
 0.000000 1.000000
 0.000000 1.000000
 1.000000 0.000000

4
 1.000000 0.000000
 0.000000 1.000000

4
 1.000000 0.000000
 0.000000 1.000000

4
 1.000000 0.000000
 0.000000 1.000000

8
 1.000000 0.000000
 1.000000 0.000000
 1.000000 0.000000
 0.000000 1.000000

4
 0.000000 1.000000
 1.000000 0.000000

4
 0.000000 1.000000
 1.000000 0.000000

2
 0.500000 0.500000

4
 1.000000 0.000000
 0.000000 1.000000

4
 0.000000 1.000000
 1.000000 0.000000

4
 1.000000 0.000000
 0.000000 1.000000

8
 1.000000 0.000000
 0.000000 1.000000
 0.000000 1.000000
 1.000000 0.000000

8
 1.000000 0.000000
 0.000000 1.000000
 0.000000 1.000000
 1.000000 0.000000

8
 1.000000 0.000000
 1.000000 0.000000
 1.000000 0.000000
 0.000000 1.000000

4
 1.000000 0.000000
 0.000000 1.000000

2
 0.500000 0.500000

8
 1.000000 0.000000
 0.000000 1.000000
 0.000000 1.000000
 1.000000 0.000000

8
 1.000000 0.000000
 0.000000 1.000000
 0.000000 1.000000
 1.000000 0.000000

4
 1.000000 0.000000
 0.000000 1.000000

4
 1.000000 0.000000
 0.000000 1.000000

4
 1.000000 0.000000
 0.000000 1.000000

64
 1.000000 0.000000
 1.000000 0.000000
 1.000000 0.000000
 1.000000 0.000000
 1.000000 0.000000
 1.000000 0.000000
 1.000000 0.000000
 1.000000 0.000000
 1.000000 0.000000
 1.000000 0.000000
 1.000000 0.000000
 1.000000 0.000000
 1.000000 0.000000
 1.000000 0.000000
 1.000000 0.000000
 1.000000 0.000000
 1.000000 0.000000
 1.000000 0.000000
 1.000000 0.000000
 1.000000 0.000000
 1.000000 0.000000
 1.000000 0.000000
 1.000000 0.000000
 1.000000 0.000000
 1.000000 0.000000
 1.000000 0.000000
 1.000000 0.000000
 1.000000 0.000000
 1.000000 0.000000
 1.000000 0.000000
 1.000000 0.000000
 0.000000 1.000000

8
 1.000000 0.000000
 0.000000 1.000000
 0.000000 1.000000
 1.000000 0.000000

8
 1.000000 0.000000
 0.000000 1.000000
 0.000000 1.000000
 1.000000 0.000000

4
 1.000000 0.000000
 0.000000 1.000000

4
 1.000000 0.000000
 0.000000 1.000000

4
 1.000000 0.000000
 0.000000 1.000000

4
 1.000000 0.000000
 0.000000 1.000000

4
 1.000000 0.000000
 0.000000 1.000000

8
 1.000000 0.000000
 1.000000 0.000000
 1.000000 0.000000
 0.000000 1.000000

4
 0.000000 1.000000
 1.000000 0.000000

4
 1.000000 0.000000
 0.000000 1.000000

8
 1.000000 0.000000
 0.000000 1.000000
 0.000000 1.000000
 1.000000 0.000000

8
 1.000000 0.000000
 0.000000 1.000000
 0.000000 1.000000
 1.000000 0.000000

4
 1.000000 0.000000
 0.000000 1.000000

8
 1.000000 0.000000
 0.000000 1.000000
 0.000000 1.000000
 1.000000 0.000000

4
 1.000000 0.000000
 0.000000 1.000000

4
 1.000000 0.000000
 0.000000 1.000000

8
 1.000000 0.000000
 1.000000 0.000000
 1.000000 0.000000
 0.000000 1.000000

8
 1.000000 0.000000
 0.000000 1.000000
 0.000000 1.000000
 1.000000 0.000000

2
 0.500000 0.500000

4
 1.000000 0.000000
 0.000000 1.000000

8
 1.000000 0.000000
 0.000000 1.000000
 0.000000 1.000000
 1.000000 0.000000

4
 1.000000 0.000000
 0.000000 1.000000

4
 0.000000 1.000000
 1.000000 0.000000

8
 1.000000 0.000000
 1.000000 0.000000
 1.000000 0.000000
 0.000000 1.000000

8
 1.000000 0.000000
 0.000000 1.000000
 0.000000 1.000000
 1.000000 0.000000

4
 1.000000 0.000000
 0.000000 1.000000

4
 1.000000 0.000000
 0.000000 1.000000

8
 1.000000 0.000000
 1.000000 0.000000
 1.000000 0.000000
 0.000000 1.000000

4
 1.000000 0.000000
 0.000000 1.000000

8
 1.000000 0.000000
 1.000000 0.000000
 1.000000 0.000000
 0.000000 1.000000

8
 1.000000 0.000000
 0.000000 1.000000
 0.000000 1.000000
 1.000000 0.000000

4
 1.000000 0.000000
 0.000000 1.000000

4
 1.000000 0.000000
 0.000000 1.000000

4
 0.000000 1.000000
 1.000000 0.000000

4
 1.000000 0.000000
 0.000000 1.000000

2
 0.500000 0.500000

4
 1.000000 0.000000
 0.000000 1.000000

4
 1.000000 0.000000
 0.000000 1.000000

4
 1.000000 0.000000
 0.000000 1.000000

2
 0.500000 0.500000

4
 1.000000 0.000000
 0.000000 1.000000

8
 1.000000 0.000000
 0.000000 1.000000
 0.000000 1.000000
 1.000000 0.000000

4
 1.000000 0.000000
 0.000000 1.000000

4
 1.000000 0.000000
 0.000000 1.000000

4
 1.000000 0.000000
 0.000000 1.000000

2
 0.500000 0.500000

4
 1.000000 0.000000
 0.000000 1.000000

4
 0.000000 1.000000
 1.000000 0.000000

4
 1.000000 0.000000
 0.000000 1.000000

8
 1.000000 0.000000
 0.000000 1.000000
 0.000000 1.000000
 1.000000 0.000000

4
 1.000000 0.000000
 0.000000 1.000000

4
 1.000000 0.000000
 0.000000 1.000000

8
 1.000000 0.000000
 0.000000 1.000000
 0.000000 1.000000
 1.000000 0.000000

4
 1.000000 0.000000
 0.000000 1.000000

8
 1.000000 0.000000
 0.000000 1.000000
 0.000000 1.000000
 1.000000 0.000000

8
 1.000000 0.000000
 0.000000 1.000000
 0.000000 1.000000
 1.000000 0.000000

4
 1.000000 0.000000
 0.000000 1.000000

2
 0.500000 0.500000

4
 1.000000 0.000000
 0.000000 1.000000

2
 0.500000 0.500000

4
 1.000000 0.000000
 0.000000 1.000000

4
 1.000000 0.000000
 0.000000 1.000000

4
 1.000000 0.000000
 0.000000 1.000000

64
 1.000000 0.000000
 1.000000 0.000000
 1.000000 0.000000
 1.000000 0.000000
 1.000000 0.000000
 1.000000 0.000000
 1.000000 0.000000
 1.000000 0.000000
 1.000000 0.000000
 1.000000 0.000000
 1.000000 0.000000
 1.000000 0.000000
 1.000000 0.000000
 1.000000 0.000000
 1.000000 0.000000
 1.000000 0.000000
 1.000000 0.000000
 1.000000 0.000000
 1.000000 0.000000
 1.000000 0.000000
 1.000000 0.000000
 1.000000 0.000000
 1.000000 0.000000
 1.000000 0.000000
 1.000000 0.000000
 1.000000 0.000000
 1.000000 0.000000
 1.000000 0.000000
 1.000000 0.000000
 1.000000 0.000000
 1.000000 0.000000
 0.000000 1.000000

8
 1.000000 0.000000
 0.000000 1.000000
 0.000000 1.000000
 1.000000 0.000000

4
 1.000000 0.000000
 0.000000 1.000000

4
 1.000000 0.000000
 0.000000 1.000000

4
 1.000000 0.000000
 0.000000 1.000000

2
 0.500000 0.500000

8
 1.000000 0.000000
 1.000000 0.000000
 1.000000 0.000000
 0.000000 1.000000

4
 0.000000 1.000000
 1.000000 0.000000

8
 1.000000 0.000000
 0.000000 1.000000
 0.000000 1.000000
 1.000000 0.000000

8
 1.000000 0.000000
 0.000000 1.000000
 0.000000 1.000000
 1.000000 0.000000

8
 1.000000 0.000000
 0.000000 1.000000
 0.000000 1.000000
 1.000000 0.000000

4
 0.000000 1.000000
 1.000000 0.000000

4
 1.000000 0.000000
 0.000000 1.000000

8
 1.000000 0.000000
 1.000000 0.000000
 1.000000 0.000000
 0.000000 1.000000

8
 1.000000 0.000000
 1.000000 0.000000
 1.000000 0.000000
 0.000000 1.000000

8
 1.000000 0.000000
 0.000000 1.000000
 0.000000 1.000000
 1.000000 0.000000

4
 1.000000 0.000000
 0.000000 1.000000

2
 0.500000 0.500000

8
 1.000000 0.000000
 0.000000 1.000000
 0.000000 1.000000
 1.000000 0.000000

4
 0.000000 1.000000
 1.000000 0.000000

8
 1.000000 0.000000
 0.000000 1.000000
 0.000000 1.000000
 1.000000 0.000000

4
 1.000000 0.000000
 0.000000 1.000000

4
 1.000000 0.000000
 0.000000 1.000000

2
 0.500000 0.500000

4
 1.000000 0.000000
 0.000000 1.000000

4
 1.000000 0.000000
 0.000000 1.000000

2
 0.500000 0.500000

8
 1.000000 0.000000
 0.000000 1.000000
 0.000000 1.000000
 1.000000 0.000000

8
 1.000000 0.000000
 1.000000 0.000000
 1.000000 0.000000
 0.000000 1.000000

2
 0.500000 0.500000

4
 1.000000 0.000000
 0.000000 1.000000

8
 1.000000 0.000000
 0.000000 1.000000
 0.000000 1.000000
 1.000000 0.000000

4
 0.000000 1.000000
 1.000000 0.000000

2
 0.500000 0.500000

4
 1.000000 0.000000
 0.000000 1.000000

4
 1.000000 0.000000
 0.000000 1.000000

4
 1.000000 0.000000
 0.000000 1.000000

2
 0.500000 0.500000

4
 1.000000 0.000000
 0.000000 1.000000

4
 0.000000 1.000000
 1.000000 0.000000

4
 1.000000 0.000000
 0.000000 1.000000

4
 0.000000 1.000000
 1.000000 0.000000

4
 0.000000 1.000000
 1.000000 0.000000

4
 1.000000 0.000000
 0.000000 1.000000

64
 1.000000 0.000000
 1.000000 0.000000
 1.000000 0.000000
 1.000000 0.000000
 1.000000 0.000000
 1.000000 0.000000
 1.000000 0.000000
 1.000000 0.000000
 1.000000 0.000000
 1.000000 0.000000
 1.000000 0.000000
 1.000000 0.000000
 1.000000 0.000000
 1.000000 0.000000
 1.000000 0.000000
 1.000000 0.000000
 1.000000 0.000000
 1.000000 0.000000
 1.000000 0.000000
 1.000000 0.000000
 1.000000 0.000000
 1.000000 0.000000
 1.000000 0.000000
 1.000000 0.000000
 1.000000 0.000000
 1.000000 0.000000
 1.000000 0.000000
 1.000000 0.000000
 1.000000 0.000000
 1.000000 0.000000
 1.000000 0.000000
 0.000000 1.000000

8
 1.000000 0.000000
 0.000000 1.000000
 0.000000 1.000000
 1.000000 0.000000

4
 1.000000 0.000000
 0.000000 1.000000

8
 1.000000 0.000000
 0.000000 1.000000
 0.000000 1.000000
 1.000000 0.000000

4
 1.000000 0.000000
 0.000000 1.000000

4
 1.000000 0.000000
 0.000000 1.000000

4
 1.000000 0.000000
 0.000000 1.000000

8
 1.000000 0.000000
 0.000000 1.000000
 0.000000 1.000000
 1.000000 0.000000

4
 1.000000 0.000000
 0.000000 1.000000

4
 1.000000 0.000000
 0.000000 1.000000

8
 1.000000 0.000000
 1.000000 0.000000
 1.000000 0.000000
 0.000000 1.000000

2
 0.500000 0.500000

2
 0.500000 0.500000

4
 1.000000 0.000000
 0.000000 1.000000

8
 1.000000 0.000000
 0.000000 1.000000
 0.000000 1.000000
 1.000000 0.000000

4
 1.000000 0.000000
 0.000000 1.000000

4
 1.000000 0.000000
 0.000000 1.000000

4
 1.000000 0.000000
 0.000000 1.000000

8
 1.000000 0.000000
 1.000000 0.000000
 1.000000 0.000000
 0.000000 1.000000

4
 1.000000 0.000000
 0.000000 1.000000

4
 1.000000 0.000000
 0.000000 1.000000

4
 1.000000 0.000000
 0.000000 1.000000

4
 0.000000 1.000000
 1.000000 0.000000

8
 1.000000 0.000000
 0.000000 1.000000
 0.000000 1.000000
 1.000000 0.000000

4
 1.000000 0.000000
 0.000000 1.000000

8
 1.000000 0.000000
 1.000000 0.000000
 1.000000 0.000000
 0.000000 1.000000

8
 1.000000 0.000000
 1.000000 0.000000
 1.000000 0.000000
 0.000000 1.000000

4
 1.000000 0.000000
 0.000000 1.000000

4
 1.000000 0.000000
 0.000000 1.000000

8
 1.000000 0.000000
 1.000000 0.000000
 1.000000 0.000000
 0.000000 1.000000

4
 1.000000 0.000000
 0.000000 1.000000

4
 1.000000 0.000000
 0.000000 1.000000

32
 1.000000 0.000000
 1.000000 0.000000
 1.000000 0.000000
 1.000000 0.000000
 1.000000 0.000000
 1.000000 0.000000
 1.000000 0.000000
 1.000000 0.000000
 1.000000 0.000000
 1.000000 0.000000
 1.000000 0.000000
 1.000000 0.000000
 1.000000 0.000000
 1.000000 0.000000
 1.000000 0.000000
 0.000000 1.000000

4
 1.000000 0.000000
 0.000000 1.000000

8
 1.000000 0.000000
 0.000000 1.000000
 0.000000 1.000000
 1.000000 0.000000

4
 1.000000 0.000000
 0.000000 1.000000

8
 1.000000 0.000000
 1.000000 0.000000
 1.000000 0.000000
 0.000000 1.000000

4
 1.000000 0.000000
 0.000000 1.000000

4
 1.000000 0.000000
 0.000000 1.000000

4
 1.000000 0.000000
 0.000000 1.000000

8
 1.000000 0.000000
 1.000000 0.000000
 1.000000 0.000000
 0.000000 1.000000

2
 0.500000 0.500000

8
 1.000000 0.000000
 0.000000 1.000000
 0.000000 1.000000
 1.000000 0.000000

4
 1.000000 0.000000
 0.000000 1.000000

4
 0.000000 1.000000
 1.000000 0.000000

4
 1.000000 0.000000
 0.000000 1.000000

4
 1.000000 0.000000
 0.000000 1.000000

4
 1.000000 0.000000
 0.000000 1.000000

4
 1.000000 0.000000
 0.000000 1.000000

8
 1.000000 0.000000
 1.000000 0.000000
 1.000000 0.000000
 0.000000 1.000000

4
 1.000000 0.000000
 0.000000 1.000000

8
 1.000000 0.000000
 1.000000 0.000000
 1.000000 0.000000
 0.000000 1.000000

4
 1.000000 0.000000
 0.000000 1.000000

4
 1.000000 0.000000
 0.000000 1.000000

8
 1.000000 0.000000
 0.000000 1.000000
 0.000000 1.000000
 1.000000 0.000000

4
 1.000000 0.000000
 0.000000 1.000000

4
 0.000000 1.000000
 1.000000 0.000000

4
 1.000000 0.000000
 0.000000 1.000000

32
 1.000000 0.000000
 1.000000 0.000000
 1.000000 0.000000
 1.000000 0.000000
 1.000000 0.000000
 1.000000 0.000000
 1.000000 0.000000
 1.000000 0.000000
 1.000000 0.000000
 1.000000 0.000000
 1.000000 0.000000
 1.000000 0.000000
 1.000000 0.000000
 1.000000 0.000000
 1.000000 0.000000
 0.000000 1.000000

4
 0.000000 1.000000
 1.000000 0.000000

4
 0.000000 1.000000
 1.000000 0.000000

4
 1.000000 0.000000
 0.000000 1.000000

8
 1.000000 0.000000
 0.000000 1.000000
 0.000000 1.000000
 1.000000 0.000000

8
 1.000000 0.000000
 0.000000 1.000000
 0.000000 1.000000
 1.000000 0.000000

32
 1.000000 0.000000
 1.000000 0.000000
 1.000000 0.000000
 1.000000 0.000000
 1.000000 0.000000
 1.000000 0.000000
 1.000000 0.000000
 1.000000 0.000000
 1.000000 0.000000
 1.000000 0.000000
 1.000000 0.000000
 1.000000 0.000000
 1.000000 0.000000
 1.000000 0.000000
 1.000000 0.000000
 0.000000 1.000000

4
 1.000000 0.000000
 0.000000 1.000000

8
 1.000000 0.000000
 0.000000 1.000000
 0.000000 1.000000
 1.000000 0.000000

32
 1.000000 0.000000
 1.000000 0.000000
 1.000000 0.000000
 1.000000 0.000000
 1.000000 0.000000
 1.000000 0.000000
 1.000000 0.000000
 1.000000 0.000000
 1.000000 0.000000
 1.000000 0.000000
 1.000000 0.000000
 1.000000 0.000000
 1.000000 0.000000
 1.000000 0.000000
 1.000000 0.000000
 0.000000 1.000000

4
 1.000000 0.